
******************************************************************************
This program contains Ipopt, a library for large-scale nonlinear optimization.
 Ipopt is released as open source code under the Eclipse Public License (EPL).
         For more information visit http://projects.coin-or.org/Ipopt

This version of Ipopt was compiled from source code available at
    https://github.com/IDAES/Ipopt as part of the Institute for the Design of
    Advanced Energy Systems Process Systems Engineering Framework (IDAES PSE
    Framework) Copyright (c) 2018-2019. See https://github.com/IDAES/idaes-pse.

This version of Ipopt was compiled using HSL, a collection of Fortran codes
    for large-scale scientific computation.  All technical papers, sales and
    publicity material resulting from use of the HSL codes within IPOPT must
    contain the following acknowledgement:
        HSL, a collection of Fortran codes for large-scale scientific
        computation. See http://www.hsl.rl.ac.uk.
******************************************************************************

This is Ipopt version 3.13.2, running with linear solver ma27.

Number of nonzeros in equality constraint Jacobian...:      808
Number of nonzeros in inequality constraint Jacobian.:        0
Number of nonzeros in Lagrangian Hessian.............:      702

Total number of variables............................:      351
                     variables with only lower bounds:      108
                variables with lower and upper bounds:      189
                     variables with only upper bounds:        0
Total number of equality constraints.................:      350
Total number of inequality constraints...............:        0
        inequality constraints with only lower bounds:        0
   inequality constraints with lower and upper bounds:        0
        inequality constraints with only upper bounds:        0

iter    objective    inf_pr   inf_du lg(mu)  ||d||  lg(rg) alpha_du alpha_pr  ls
   0  0.0000000e+00 4.54e-01 2.84e-14  -1.0 0.00e+00    -  0.00e+00 0.00e+00   0
   1  3.9152174e-01 3.03e-01 4.11e+04  -1.0 1.27e+05    -  6.95e-01 3.34e-01h  1
   2  4.0397199e-01 3.01e-01 4.12e+04  -1.0 9.32e+04    -  8.63e-01 8.39e-03h  1
   3  1.4501175e+01 4.02e-02 4.15e+04  -1.0 2.33e+05    -  7.61e-01 9.90e-01h  1
   4  1.8754265e+01 1.22e-03 1.61e+03  -1.0 3.50e+04    -  9.55e-01 9.90e-01h  1
   5  1.8874916e+01 1.30e-05 3.48e+01  -1.0 9.50e+02    -  9.90e-01 9.90e-01h  1
   6  1.8875447e+01 1.29e-05 1.49e+07  -1.0 4.81e+02    -  9.90e-01 7.73e-03f  8
   7  1.8877320e+01 1.27e-05 2.95e+07  -1.0 8.48e+02    -  9.91e-01 1.55e-02f  7
   8  1.8996692e+01 6.40e-05 4.50e+05  -1.0 8.43e+02    -  1.00e+00 9.90e-01h  1
   9  1.8996984e+01 6.58e-07 1.55e+07  -1.0 2.06e+00    -  1.00e+00 9.90e-01h  1
iter    objective    inf_pr   inf_du lg(mu)  ||d||  lg(rg) alpha_du alpha_pr  ls
  10  1.8996984e+01 6.58e-09 1.55e+09  -1.0 2.72e-03    -  1.00e+00 9.90e-01h  1
  11  1.8996984e+01 8.97e-10 1.55e+11  -1.0 2.40e-04    -  1.00e+00 9.90e-01h  1
In iteration 11, 27 Slacks too small, adjusting variable bounds
  12  1.8996984e+01 9.63e-10 1.55e+13  -1.0 1.21e-04    -  1.00e+00 9.90e-01h  1
  13  1.8996984e+01 1.49e-10 1.11e-01  -1.0 1.30e-04    -  1.00e+00 1.00e+00h  1
  14  1.8996982e+01 6.35e-10 1.58e+13  -9.0 1.05e+03    -  9.99e-01 1.24e-05f 17
  15  1.8996922e+01 2.35e-10 1.58e+13  -9.0 8.58e+02    -  9.99e-01 4.87e-04f 12
  16  1.8996682e+01 2.72e-10 1.58e+13  -9.0 8.54e+02    -  1.00e+00 1.95e-03f 10
  17  1.8996682e+01 2.72e-10 1.58e+13  -9.0 8.53e+02    -  1.00e+00 7.63e-06f 18
  18  1.8996681e+01 2.72e-10 1.58e+13  -9.0 8.53e+02    -  1.00e+00 4.77e-07f 22
  19  1.8874549e+01 7.10e-05 9.00e+00  -9.0 8.53e+02    -  1.00e+00 1.00e+00f  1
iter    objective    inf_pr   inf_du lg(mu)  ||d||  lg(rg) alpha_du alpha_pr  ls
  20  1.8874036e+01 6.22e-10 3.89e-05  -9.0 3.60e+00    -  1.00e+00 1.00e+00h  1
  21  1.8874036e+01 1.41e-10 2.91e-11  -9.0 4.19e-05    -  1.00e+00 1.00e+00h  1

Number of Iterations....: 21

                                   (scaled)                 (unscaled)
Objective...............:   1.8874036129759716e+01    1.8874036129759716e+01
Dual infeasibility......:   2.9103830456733704e-11    2.9103830456733704e-11
Constraint violation....:   1.4133272330241198e-10    1.4133272330241198e-10
Complementarity.........:   9.0909107349363880e-10    9.0909107349363880e-10
Overall NLP error.......:   1.4133272330241198e-10    9.0909107349363880e-10


Number of objective function evaluations             = 127
Number of objective gradient evaluations             = 22
Number of equality constraint evaluations            = 127
Number of inequality constraint evaluations          = 0
Number of equality constraint Jacobian evaluations   = 22
Number of inequality constraint Jacobian evaluations = 0
Number of Lagrangian Hessian evaluations             = 21
Total CPU secs in IPOPT (w/o function evaluations)   =      0.052
Total CPU secs in NLP function evaluations           =      1.034

EXIT: Optimal Solution Found.
